200
1000
396
396
396
395
394
392
391
390
389
386
386
386
385
383
383
382
381
380
379
379
378
377
377
375
375
375
375
374
374
373
373
373
372
372
371
370
370
369
369
368
367
367
367
367
367
367
365
365
364
362
362
362
361
361
360
359
357
357
357
357
356
356
354
354
353
353
351
350
349
349
349
348
348
348
347
346
346
344
342
342
342
340
338
338
338
337
337
337
336
336
336
335
335
335
335
335
334
334
334
333
333
333
332
330
328
328
328
328
327
327
327
327
326
325
325
324
323
323
322
322
321
321
318
318
318
317
317
317
316
316
316
315
315
315
315
313
313
313
312
311
311
310
310
310
309
307
307
306
306
306
306
305
304
302
302
301
299
299
297
297
297
296
293
290
290
289
289
288
288
287
287
286
285
285
283
283
283
283
282
281
280
279
277
276
275
274
274
274
274
273
272
270
270
270
268
268
267
267
267
266
